p cnf 1434
-9 -128
-10 -46
-11 -49
-12 -52
-13 -55
-14 -150
-15 -156
-16 -162
-17 -168
-18 -190
-19 -209
-20 -227
-21 -237
-22 -256
-23 -275
-24 -293
-25 -303
-26 -322
-27 -341
-28 -359
-29 -369
-30 -388
-31 -407
-32 -425
-33 -435
-34 -463
-35 1
-35 -14
-1 14 35
-36 2
-36 -15
-2 15 36
-37 3
-37 -16
-3 16 37
-38 4
-38 -17
-4 17 38
-39 -35
-39 36
35 -36 39
-40 -35
-40 -39
35 39 40
-41 37
-41 40
-37 -40 41
-42 40
-42 -41
-40 41 42
-43 38
-43 42
-38 -42 43
-44 -9
-44 35
9 -35 44
-45 9
-45 10
-9 -10 45
-46 -44
-46 -45
44 45 46
-47 -9
-47 39
9 -39 47
-48 9
-48 11
-9 -11 48
-49 -47
-49 -48
47 48 49
-50 -9
-50 41
9 -41 50
-51 9
-51 12
-9 -12 51
-52 -50
-52 -51
50 51 52
-53 -9
-53 43
9 -43 53
-54 9
-54 13
-9 -13 54
-55 -53
-55 -54
53 54 55
-56 1
-56 -46
-1 46 56
-57 2
-57 -49
-2 49 57
-58 3
-58 -52
-3 52 58
-59 4
-59 -55
-4 55 59
-60 18
-60 -19
-18 19 60
-61 -20
-61 -21
20 21 61
-62 60
-62 61
-60 -61 62
-63 -18
-63 -19
18 19 63
-64 -20
-64 21
20 -21 64
-65 63
-65 64
-63 -64 65
-66 -62
-66 -65
62 65 66
-67 56
-67 -66
-56 66 67
-68 22
-68 -23
-22 23 68
-69 -24
-69 -25
24 25 69
-70 68
-70 69
-68 -69 70
-71 -22
-71 -23
22 23 71
-72 -24
-72 25
24 -25 72
-73 71
-73 72
-71 -72 73
-74 -70
-74 -73
70 73 74
-75 57
-75 -74
-57 74 75
-76 26
-76 -27
-26 27 76
-77 -28
-77 -29
28 29 77
-78 76
-78 77
-76 -77 78
-79 -26
-79 -27
26 27 79
-80 -28
-80 29
28 -29 80
-81 79
-81 80
-79 -80 81
-82 -78
-82 -81
78 81 82
-83 58
-83 -82
-58 82 83
-84 30
-84 -31
-30 31 84
-85 -32
-85 -33
32 33 85
-86 84
-86 85
-84 -85 86
-87 -30
-87 -31
30 31 87
-88 -32
-88 33
32 -33 88
-89 87
-89 88
-87 -88 89
-90 -86
-90 -89
86 89 90
-91 59
-91 -90
-59 90 91
-92 -67
-92 -75
67 75 92
-93 -83
-93 -91
83 91 93
-94 92
-94 93
-92 -93 94
-95 -18
-95 19
18 -19 95
-96 20
-96 -21
-20 21 96
-97 95
-97 96
-95 -96 97
-98 20
-98 21
-20 -21 98
-99 60
-99 98
-60 -98 99
-100 -97
-100 -99
97 99 100
-101 56
-101 -100
-56 100 101
-102 -22
-102 23
22 -23 102
-103 24
-103 -25
-24 25 103
-104 102
-104 103
-102 -103 104
-105 24
-105 25
-24 -25 105
-106 68
-106 105
-68 -105 106
-107 -104
-107 -106
104 106 107
-108 57
-108 -107
-57 107 108
-109 -26
-109 27
26 -27 109
-110 28
-110 -29
-28 29 110
-111 109
-111 110
-109 -110 111
-112 28
-112 29
-28 -29 112
-113 76
-113 112
-76 -112 113
-114 -111
-114 -113
111 113 114
-115 58
-115 -114
-58 114 115
-116 -30
-116 31
30 -31 116
-117 32
-117 -33
-32 33 117
-118 116
-118 117
-116 -117 118
-119 32
-119 33
-32 -33 119
-120 84
-120 119
-84 -119 120
-121 -118
-121 -120
118 120 121
-122 59
-122 -121
-59 121 122
-123 -101
-123 -108
101 108 123
-124 -115
-124 -122
115 122 124
-125 123
-125 124
-123 -124 125
-126 9
-126 125
-9 -125 126
-127 94
-127 126
-94 -126 127
-128 94
-128 -127
-94 127 128
-129 -14
-129 15
14 -15 129
-130 -14
-130 -129
14 129 130
-131 16
-131 130
-16 -130 131
-132 130
-132 -131
-130 131 132
-133 17
-133 132
-17 -132 133
-134 63
-134 98
-63 -98 134
-135 56
-135 134
-56 -134 135
-136 71
-136 105
-71 -105 136
-137 57
-137 136
-57 -136 137
-138 79
-138 112
-79 -112 138
-139 58
-139 138
-58 -138 139
-140 87
-140 119
-87 -119 140
-141 59
-141 140
-59 -140 141
-142 -135
-142 -137
135 137 142
-143 -139
-143 -141
139 141 143
-144 142
-144 143
-142 -143 144
-145 60
-145 96
-60 -96 145
-146 56
-146 145
-56 -145 146
-147 14
-147 -144
-14 144 147
-148 14
-148 -147
-14 147 148
-149 -146
-149 148
146 -148 149
-150 -146
-150 -149
146 149 150
-151 68
-151 103
-68 -103 151
-152 57
-152 151
-57 -151 152
-153 129
-153 -144
-129 144 153
-154 15
-154 -153
-15 153 154
-155 -152
-155 154
152 -154 155
-156 -152
-156 -155
152 155 156
-157 76
-157 110
-76 -110 157
-158 58
-158 157
-58 -157 158
-159 131
-159 -144
-131 144 159
-160 16
-160 -159
-16 159 160
-161 -158
-161 160
158 -160 161
-162 -158
-162 -161
158 161 162
-163 84
-163 117
-84 -117 163
-164 59
-164 163
-59 -163 164
-165 133
-165 -144
-133 144 165
-166 17
-166 -165
-17 165 166
-167 -164
-167 166
164 -166 167
-168 -164
-168 -167
164 167 168
-169 -14
-169 -15
14 15 169
-170 -16
-170 -17
16 17 170
-171 169
-171 170
-169 -170 171
-172 -19
-172 -63
19 63 172
-173 20
-173 63
-20 -63 173
-174 -20
-174 -172
20 172 174
-175 -173
-175 -174
173 174 175
-176 -5
-176 18
5 -18 176
-177 18
-177 -176
-18 176 177
-178 19
-178 -177
-19 177 178
-179 5
-179 -18
-5 18 179
-180 -19
-180 179
19 -179 180
-181 -95
-181 -180
95 180 181
-182 20
-182 178
-20 -178 182
-183 -20
-183 -181
20 181 183
-184 -182
-184 -183
182 183 184
-185 21
-185 -175
-21 175 185
-186 -21
-186 -184
21 184 186
-187 -185
-187 -186
185 186 187
-188 56
-188 -187
-56 187 188
-189 18
-189 -56
-18 56 189
-190 -188
-190 -189
188 189 190
-191 18
-191 171
-18 -171 191
-192 -19
-192 191
19 -191 192
-193 -95
-193 -192
95 192 193
-194 20
-194 60
-20 -60 194
-195 -20
-195 -193
20 193 195
-196 -194
-196 -195
194 195 196
-197 19
-197 -178
-19 178 197
-198 -18
-198 -34
18 34 198
-199 19
-199 198
-19 -198 199
-200 -60
-200 -199
60 199 200
-201 20
-201 -197
-20 197 201
-202 -20
-202 -200
20 200 202
-203 -201
-203 -202
201 202 203
-204 21
-204 -196
-21 196 204
-205 -21
-205 -203
21 203 205
-206 -204
-206 -205
204 205 206
-207 56
-207 -206
-56 206 207
-208 19
-208 -56
-19 56 208
-209 -207
-209 -208
207 208 209
-210 18
-210 -171
-18 171 210
-211 18
-211 19
-18 -19 211
-212 -19
-212 210
19 -210 212
-213 -211
-213 -212
211 212 213
-214 -19
-214 20
19 -20 214
-215 -20
-215 -213
20 213 215
-216 -214
-216 -215
214 215 216
-217 -18
-217 34
18 -34 217
-218 -18
-218 -217
18 217 218
-219 19
-219 -218
-19 218 219
-220 -20
-220 219
20 -219 220
-221 -201
-221 -220
201 220 221
-222 21
-222 -216
-21 216 222
-223 -21
-223 -221
21 221 223
-224 -222
-224 -223
222 223 224
-225 56
-225 -224
-56 224 225
-226 20
-226 -56
-20 56 226
-227 -225
-227 -226
225 226 227
-228 20
-228 -214
-20 214 228
-229 5
-229 18
-5 -18 229
-230 19
-230 229
-19 -229 230
-231 20
-231 230
-20 -230 231
-232 21
-232 -228
-21 228 232
-233 -21
-233 231
21 -231 233
-234 -232
-234 -233
232 233 234
-235 56
-235 -234
-56 234 235
-236 21
-236 -56
-21 56 236
-237 -235
-237 -236
235 236 237
-238 -23
-238 -71
23 71 238
-239 24
-239 71
-24 -71 239
-240 -24
-240 -238
24 238 240
-241 -239
-241 -240
239 240 241
-242 -6
-242 22
6 -22 242
-243 22
-243 -242
-22 242 243
-244 23
-244 -243
-23 243 244
-245 6
-245 -22
-6 22 245
-246 -23
-246 245
23 -245 246
-247 -102
-247 -246
102 246 247
-248 24
-248 244
-24 -244 248
-249 -24
-249 -247
24 247 249
-250 -248
-250 -249
248 249 250
-251 25
-251 -241
-25 241 251
-252 -25
-252 -250
25 250 252
-253 -251
-253 -252
251 252 253
-254 57
-254 -253
-57 253 254
-255 22
-255 -57
-22 57 255
-256 -254
-256 -255
254 255 256
-257 22
-257 171
-22 -171 257
-258 -23
-258 257
23 -257 258
-259 -102
-259 -258
102 258 259
-260 24
-260 68
-24 -68 260
-261 -24
-261 -259
24 259 261
-262 -260
-262 -261
260 261 262
-263 23
-263 -244
-23 244 263
-264 -22
-264 -34
22 34 264
-265 23
-265 264
-23 -264 265
-266 -68
-266 -265
68 265 266
-267 24
-267 -263
-24 263 267
-268 -24
-268 -266
24 266 268
-269 -267
-269 -268
267 268 269
-270 25
-270 -262
-25 262 270
-271 -25
-271 -269
25 269 271
-272 -270
-272 -271
270 271 272
-273 57
-273 -272
-57 272 273
-274 23
-274 -57
-23 57 274
-275 -273
-275 -274
273 274 275
-276 22
-276 -171
-22 171 276
-277 22
-277 23
-22 -23 277
-278 -23
-278 276
23 -276 278
-279 -277
-279 -278
277 278 279
-280 -23
-280 24
23 -24 280
-281 -24
-281 -279
24 279 281
-282 -280
-282 -281
280 281 282
-283 -22
-283 34
22 -34 283
-284 -22
-284 -283
22 283 284
-285 23
-285 -284
-23 284 285
-286 -24
-286 285
24 -285 286
-287 -267
-287 -286
267 286 287
-288 25
-288 -282
-25 282 288
-289 -25
-289 -287
25 287 289
-290 -288
-290 -289
288 289 290
-291 57
-291 -290
-57 290 291
-292 24
-292 -57
-24 57 292
-293 -291
-293 -292
291 292 293
-294 24
-294 -280
-24 280 294
-295 6
-295 22
-6 -22 295
-296 23
-296 295
-23 -295 296
-297 24
-297 296
-24 -296 297
-298 25
-298 -294
-25 294 298
-299 -25
-299 297
25 -297 299
-300 -298
-300 -299
298 299 300
-301 57
-301 -300
-57 300 301
-302 25
-302 -57
-25 57 302
-303 -301
-303 -302
301 302 303
-304 -27
-304 -79
27 79 304
-305 28
-305 79
-28 -79 305
-306 -28
-306 -304
28 304 306
-307 -305
-307 -306
305 306 307
-308 -7
-308 26
7 -26 308
-309 26
-309 -308
-26 308 309
-310 27
-310 -309
-27 309 310
-311 7
-311 -26
-7 26 311
-312 -27
-312 311
27 -311 312
-313 -109
-313 -312
109 312 313
-314 28
-314 310
-28 -310 314
-315 -28
-315 -313
28 313 315
-316 -314
-316 -315
314 315 316
-317 29
-317 -307
-29 307 317
-318 -29
-318 -316
29 316 318
-319 -317
-319 -318
317 318 319
-320 58
-320 -319
-58 319 320
-321 26
-321 -58
-26 58 321
-322 -320
-322 -321
320 321 322
-323 26
-323 171
-26 -171 323
-324 -27
-324 323
27 -323 324
-325 -109
-325 -324
109 324 325
-326 28
-326 76
-28 -76 326
-327 -28
-327 -325
28 325 327
-328 -326
-328 -327
326 327 328
-329 27
-329 -310
-27 310 329
-330 -26
-330 -34
26 34 330
-331 27
-331 330
-27 -330 331
-332 -76
-332 -331
76 331 332
-333 28
-333 -329
-28 329 333
-334 -28
-334 -332
28 332 334
-335 -333
-335 -334
333 334 335
-336 29
-336 -328
-29 328 336
-337 -29
-337 -335
29 335 337
-338 -336
-338 -337
336 337 338
-339 58
-339 -338
-58 338 339
-340 27
-340 -58
-27 58 340
-341 -339
-341 -340
339 340 341
-342 26
-342 -171
-26 171 342
-343 26
-343 27
-26 -27 343
-344 -27
-344 342
27 -342 344
-345 -343
-345 -344
343 344 345
-346 -27
-346 28
27 -28 346
-347 -28
-347 -345
28 345 347
-348 -346
-348 -347
346 347 348
-349 -26
-349 34
26 -34 349
-350 -26
-350 -349
26 349 350
-351 27
-351 -350
-27 350 351
-352 -28
-352 351
28 -351 352
-353 -333
-353 -352
333 352 353
-354 29
-354 -348
-29 348 354
-355 -29
-355 -353
29 353 355
-356 -354
-356 -355
354 355 356
-357 58
-357 -356
-58 356 357
-358 28
-358 -58
-28 58 358
-359 -357
-359 -358
357 358 359
-360 28
-360 -346
-28 346 360
-361 7
-361 26
-7 -26 361
-362 27
-362 361
-27 -361 362
-363 28
-363 362
-28 -362 363
-364 29
-364 -360
-29 360 364
-365 -29
-365 363
29 -363 365
-366 -364
-366 -365
364 365 366
-367 58
-367 -366
-58 366 367
-368 29
-368 -58
-29 58 368
-369 -367
-369 -368
367 368 369
-370 -31
-370 -87
31 87 370
-371 32
-371 87
-32 -87 371
-372 -32
-372 -370
32 370 372
-373 -371
-373 -372
371 372 373
-374 -8
-374 30
8 -30 374
-375 30
-375 -374
-30 374 375
-376 31
-376 -375
-31 375 376
-377 8
-377 -30
-8 30 377
-378 -31
-378 377
31 -377 378
-379 -116
-379 -378
116 378 379
-380 32
-380 376
-32 -376 380
-381 -32
-381 -379
32 379 381
-382 -380
-382 -381
380 381 382
-383 33
-383 -373
-33 373 383
-384 -33
-384 -382
33 382 384
-385 -383
-385 -384
383 384 385
-386 59
-386 -385
-59 385 386
-387 30
-387 -59
-30 59 387
-388 -386
-388 -387
386 387 388
-389 30
-389 171
-30 -171 389
-390 -31
-390 389
31 -389 390
-391 -116
-391 -390
116 390 391
-392 32
-392 84
-32 -84 392
-393 -32
-393 -391
32 391 393
-394 -392
-394 -393
392 393 394
-395 31
-395 -376
-31 376 395
-396 -30
-396 -34
30 34 396
-397 31
-397 396
-31 -396 397
-398 -84
-398 -397
84 397 398
-399 32
-399 -395
-32 395 399
-400 -32
-400 -398
32 398 400
-401 -399
-401 -400
399 400 401
-402 33
-402 -394
-33 394 402
-403 -33
-403 -401
33 401 403
-404 -402
-404 -403
402 403 404
-405 59
-405 -404
-59 404 405
-406 31
-406 -59
-31 59 406
-407 -405
-407 -406
405 406 407
-408 30
-408 -171
-30 171 408
-409 30
-409 31
-30 -31 409
-410 -31
-410 408
31 -408 410
-411 -409
-411 -410
409 410 411
-412 -31
-412 32
31 -32 412
-413 -32
-413 -411
32 411 413
-414 -412
-414 -413
412 413 414
-415 -30
-415 34
30 -34 415
-416 -30
-416 -415
30 415 416
-417 31
-417 -416
-31 416 417
-418 -32
-418 417
32 -417 418
-419 -399
-419 -418
399 418 419
-420 33
-420 -414
-33 414 420
-421 -33
-421 -419
33 419 421
-422 -420
-422 -421
420 421 422
-423 59
-423 -422
-59 422 423
-424 32
-424 -59
-32 59 424
-425 -423
-425 -424
423 424 425
-426 32
-426 -412
-32 412 426
-427 8
-427 30
-8 -30 427
-428 31
-428 427
-31 -427 428
-429 32
-429 428
-32 -428 429
-430 33
-430 -426
-33 426 430
-431 -33
-431 429
33 -429 431
-432 -430
-432 -431
430 431 432
-433 59
-433 -432
-59 432 433
-434 33
-434 -59
-33 59 434
-435 -433
-435 -434
433 434 435
-436 61
-436 211
-61 -211 436
-437 56
-437 436
-56 -436 437
-438 69
-438 277
-69 -277 438
-439 57
-439 438
-57 -438 439
-440 77
-440 343
-77 -343 440
-441 58
-441 440
-58 -440 441
-442 85
-442 409
-85 -409 442
-443 59
-443 442
-59 -442 443
-444 -437
-444 -439
437 439 444
-445 -441
-445 -443
441 443 445
-446 444
-446 445
-444 -445 446
-447 64
-447 95
-64 -95 447
-448 56
-448 447
-56 -447 448
-449 72
-449 102
-72 -102 449
-450 57
-450 449
-57 -449 450
-451 80
-451 109
-80 -109 451
-452 58
-452 451
-58 -451 452
-453 88
-453 116
-88 -116 453
-454 59
-454 453
-59 -453 454
-455 -448
-455 -450
448 450 455
-456 -452
-456 -454
452 454 456
-457 455
-457 456
-455 -456 457
-458 -34
-458 -457
34 457 458
-459 34
-459 457
-34 -457 459
-460 -458
-460 -459
458 459 460
-461 -34
-461 -446
34 446 461
-462 446
-462 -460
-446 460 462
-463 -461
-463 -462
461 462 463
-464 96
-464 211
-96 -211 464
-465 -14
-465 464
14 -464 465
-466 103
-466 277
-103 -277 466
-467 -15
-467 466
15 -466 467
-468 110
-468 343
-110 -343 468
-469 -16
-469 468
16 -468 469
-470 117
-470 409
-117 -409 470
-471 -17
-471 470
17 -470 471
-472 465
-472 -467
-465 467 472
-473 -465
-473 467
465 -467 473
-474 -472
-474 -473
472 473 474
-475 465
-475 467
-465 -467 475
-476 -469
-476 -474
469 474 476
-477 469
-477 474
-469 -474 477
-478 -476
-478 -477
476 477 478
-479 469
-479 -474
-469 474 479
-480 475
-480 -479
-475 479 480
-481 -475
-481 479
475 -479 481
-482 -480
-482 -481
480 481 482
-483 475
-483 479
-475 -479 483
-484 -471
-484 -478
471 478 484
-485 471
-485 478
-471 -478 485
-486 -484
-486 -485
484 485 486
-487 471
-487 -478
-471 478 487
-488 -483
-488 -486
483 486 488
-489 483
-489 486
-483 -486 489
-490 -488
-490 -489
488 489 490
-491 483
-491 -486
-483 486 491
-492 -487
-492 -491
487 491 492
-493 -482
-493 492
482 -492 493
-494 482
-494 -492
-482 492 494
-495 -493
-495 -494
493 494 495
-496 -482
-496 -492
482 492 496
-497 -495
-497 -496
495 496 497
-498 -496
-498 -497
496 497 498
-499 -34
-499 -171
34 171 499
-500 34
-500 -446
-34 446 500
-501 498
-501 -500
-498 500 501
-502 -458
-502 -499
458 499 502
-503 501
-503 502
-501 -502 503
-503
